&CONTROL
  calculation = 'bands',
  prefix = 'aln',
  outdir = './tmp/',
  pseudo_dir = '../pseudo/',
  verbosity = '{VERBOSITY}',
/
&SYSTEM
  ibrav = 4,
  celldm(1) = {LATTICE_PARAM_A},
  celldm(3) = {LATTICE_PARAM_C},
  nat = {NAT},
  ntyp = {NTYP},
  nbnd = {NBNDS},
  occupations = '{OCCUPATION}',
  smearing = '{SMR_METHOD}',
  ecutwfc = {ECUTWFC},
  degauss = {DEGAUSS},
  ecutrho = {ECUTRHO},
/
&ELECTRONS
  electron_maxstep = {E_MAXSTEP},
  conv_thr = {SCF_CONV_THR},
  mixing_mode = '{MIX_MODE}',
  mixing_beta = {MIX_BETA},
  mixing_ndim = {MIXING_NDIM},
  diago_david_ndim=6,
/
!CELL_PARAMETERS (angstrom)
!{CELL_PARAM} make it CELL_PARAMS if you want it replaced, for bands unneeded
ATOMIC_SPECIES
{PSEUDOS}
ATOMIC_POSITIONS {crystal}
{ATOMIC_POSITIONS}
K_POINTS (crystal_b)
{K_POINTS_BAND}
!4
!  0.0 0.0 0.0  ! Gamma
!  0.0 0.0 0.5  ! A
!  0.3333 0.3333 0.0  ! K
!  0.0 0.0 0.0  ! Gamma

wf_collect=.true
