&input
    outdir  = './tmp/'
    prefix  = 'aln'
/
