&BANDS
 outdir  = './tmp/'
 prefix  = 'aln'
 filband = '{OUTPUT_DIR}/bands/bands'
/
